Figure: large_5
File Number: 20
Nodes: 300
Edges: 22543
Max Generations: 1000
Population Size: 100
Mutation Rate: 0.01
Colors Used: 186
Runtime: 4.55

Generation,Average Fitness,Best Fitness
0,122.61,98
1,118.53,93
2,114.32,85
3,112.99,85
4,112.0,85
5,109.96,85
6,107.28,85
7,107.96,85
8,105.58,85
9,104.35,82
10,102.21,82
11,101.18,82
12,101.45,80
13,101.06,78
14,99.6,78
15,97.55,75
16,94.84,75
17,92.76,75
18,90.02,75
19,88.55,73
20,86.21,72
21,83.66,72
22,82.08,69
23,80.84,69
24,78.92,69
25,76.8,62
26,76.66,62
27,75.41,62
28,74.22,62
29,72.62,61
30,70.3,58
31,69.41,57
32,68.42,55
33,66.47,55
34,64.55,54
35,62.71,53
36,61.93,53
37,61.09,51
38,61.12,49
39,60.93,49
40,60.24,49
41,59.32,49
42,58.03,48
43,57.06,48
44,55.57,48
45,55.61,47
46,54.9,46
47,54.59,44
48,53.88,43
49,53.59,43
50,53.7,43
51,52.58,42
52,51.48,41
53,51.13,41
54,50.1,41
55,49.66,41
56,49.56,41
57,48.59,35
58,47.28,35
59,46.49,35
60,46.06,34
61,45.13,32
62,44.69,32
63,43.9,31
64,42.04,29
65,40.47,28
66,39.13,27
67,38.05,27
68,37.83,27
69,37.63,27
70,36.52,26
71,35.09,25
72,35.25,25
73,35.12,25
74,35.22,25
75,35.49,25
76,35.58,25
77,35.16,25
78,34.78,25
79,34.54,24
80,34.68,24
81,34.01,23
82,33.88,23
83,33.41,23
84,32.81,22
85,31.9,22
86,31.94,22
87,31.56,21
88,32.02,21
89,31.18,21
90,32.04,21
91,31.7,19
92,31.01,19
93,30.55,19
94,30.01,18
95,29.65,18
96,29.43,18
97,28.6,18
98,29.22,18
99,28.87,18
100,28.8,18
101,28.39,18
102,28.39,18
103,28.1,17
104,27.68,17
105,26.92,17
106,26.92,17
107,26.2,17
108,26.52,17
109,26.44,17
110,26.3,15
111,25.58,15
112,25.47,15
113,25.67,15
114,25.87,15
115,25.65,15
116,25.49,15
117,25.64,15
118,25.5,15
119,25.58,15
120,24.7,15
121,24.53,15
122,25.53,15
123,24.98,15
124,25.21,15
125,24.78,14
126,24.91,14
127,24.0,14
128,24.18,14
129,23.59,13
130,23.48,13
131,22.67,13
132,21.93,13
133,21.38,13
134,21.43,13
135,21.46,13
136,20.68,13
137,21.07,13
138,21.58,13
139,21.68,13
140,22.41,13
141,21.96,13
142,22.09,13
143,22.6,13
144,22.32,12
145,21.24,12
146,20.98,12
147,20.6,12
148,21.0,12
149,20.38,12
150,20.5,12
151,20.2,12
152,20.06,12
153,20.0,12
154,19.35,12
155,19.31,12
156,19.83,12
157,19.37,12
158,19.52,12
159,19.67,12
160,20.16,12
161,20.72,12
162,20.83,12
163,20.71,9
164,20.53,9
165,20.42,9
166,20.57,9
167,20.03,9
168,19.4,9
169,19.94,9
170,20.52,9
171,19.95,9
172,20.03,9
173,19.24,9
174,19.16,9
175,19.9,7
176,20.97,7
177,20.27,7
178,19.57,7
179,18.61,7
180,17.9,7
181,18.53,7
182,17.73,7
183,17.54,7
184,17.63,7
185,17.45,7
186,16.35,7
187,16.39,7
188,16.78,7
189,16.58,7
190,15.95,7
191,16.26,7
192,17.24,7
193,18.0,7
194,18.1,7
195,18.19,7
196,18.45,7
197,18.59,6
198,18.24,6
199,17.73,6
200,17.66,6
201,17.49,6
202,17.31,6
203,17.86,6
204,18.1,6
205,17.79,6
206,18.21,6
207,18.39,6
208,17.41,6
209,17.32,6
210,16.73,6
211,15.97,6
212,15.55,6
213,15.66,6
214,16.09,6
215,16.39,6
216,16.71,6
217,16.6,6
218,16.6,6
219,16.96,6
220,15.98,6
221,15.7,6
222,14.84,6
223,14.83,6
224,14.93,6
225,14.99,6
226,15.41,6
227,16.09,6
228,16.43,6
229,16.73,6
230,16.51,6
231,17.17,6
232,17.37,6
233,17.27,6
234,17.75,6
235,17.84,6
236,16.93,6
237,17.39,6
238,17.66,6
239,18.0,6
240,17.23,6
241,17.5,6
242,17.21,6
243,16.68,6
244,15.79,6
245,15.82,6
246,16.39,6
247,17.02,6
248,16.71,6
249,16.58,6
250,16.87,6
251,16.54,6
252,15.92,6
253,15.72,6
254,15.51,6
255,15.29,6
256,15.78,6
257,15.69,6
258,15.31,6
259,15.35,6
260,15.38,6
261,15.35,6
262,14.68,6
263,14.88,6
264,14.15,6
265,15.13,6
266,15.67,6
267,15.73,6
268,15.97,6
269,15.38,6
270,15.02,6
271,14.62,6
272,14.49,6
273,14.48,6
274,14.43,6
275,14.6,6
276,14.83,6
277,15.0,6
278,15.5,6
279,14.83,5
280,15.33,5
281,15.5,5
282,15.96,5
283,15.61,5
284,15.8,5
285,16.6,5
286,16.3,5
287,15.96,5
288,15.6,5
289,16.28,5
290,15.89,5
291,16.44,5
292,16.49,5
293,16.51,5
294,17.09,5
295,16.84,5
296,15.68,4
297,15.54,4
298,15.56,4
299,15.3,4
300,15.2,4
301,15.03,4
302,14.25,4
303,14.56,4
304,13.65,4
305,13.51,4
306,13.79,4
307,13.31,4
308,13.8,4
309,14.29,4
310,14.43,4
311,15.17,4
312,15.97,4
313,15.58,4
314,15.33,4
315,14.78,4
316,13.57,4
317,13.66,4
318,13.71,4
319,13.7,4
320,14.1,4
321,14.2,4
322,13.98,4
323,13.99,4
324,14.46,4
325,13.71,4
326,13.86,4
327,14.44,4
328,13.77,4
329,13.56,4
330,13.51,4
331,13.31,4
332,13.58,4
333,13.56,4
334,14.38,4
335,14.9,4
336,14.87,4
337,14.88,4
338,15.22,4
339,15.14,4
340,15.62,4
341,15.35,4
342,14.94,4
343,14.64,4
344,14.84,4
345,15.48,4
346,14.89,4
347,14.71,4
348,14.71,4
349,14.61,4
350,14.45,4
351,14.52,4
352,14.02,4
353,14.45,4
354,14.95,4
355,15.64,4
356,15.24,4
357,14.76,4
358,14.42,4
359,13.94,4
360,13.63,4
361,13.83,4
362,13.76,4
363,13.74,4
364,13.28,4
365,13.81,4
366,14.3,4
367,14.99,4
368,15.84,4
369,15.75,4
370,15.69,4
371,15.73,4
372,16.42,4
373,16.05,4
374,15.67,4
375,15.54,4
376,14.76,4
377,14.42,4
378,14.76,4
379,14.57,4
380,14.96,4
381,14.77,4
382,15.53,4
383,15.41,4
384,15.69,4
385,16.15,4
386,15.82,4
387,15.89,4
388,15.56,4
389,15.4,4
390,15.14,4
391,15.7,4
392,15.44,4
393,15.92,4
394,15.78,4
395,15.66,4
396,15.79,4
397,15.49,4
398,15.17,4
399,15.39,4
400,15.28,4
401,15.22,4
402,14.93,4
403,15.42,4
404,15.96,4
405,16.23,4
406,16.26,4
407,16.67,4
408,16.95,4
409,16.2,4
410,16.02,4
411,16.52,4
412,16.6,4
413,16.11,4
414,15.66,4
415,16.17,4
416,15.69,4
417,15.25,4
418,14.95,4
419,15.19,4
420,15.31,4
421,15.73,4
422,15.51,4
423,15.89,4
424,15.13,4
425,15.24,4
426,15.4,4
427,15.6,4
428,15.77,4
429,16.01,4
430,15.51,4
431,15.63,4
432,15.41,4
433,15.38,4
434,15.26,4
435,16.18,4
436,15.8,4
437,15.54,4
438,15.72,4
439,15.38,4
440,15.57,4
441,15.88,4
442,16.45,4
443,16.84,4
444,15.47,4
445,15.29,4
446,14.8,4
447,14.96,4
448,14.76,4
449,14.41,4
450,14.64,4
451,14.3,4
452,13.6,4
453,14.04,4
454,13.21,4
455,12.77,4
456,13.55,4
457,13.03,4
458,13.01,4
459,13.46,4
460,13.88,4
461,14.23,4
462,14.58,4
463,14.87,4
464,15.34,4
465,15.38,4
466,15.05,4
467,14.82,4
468,14.1,4
469,14.58,4
470,14.34,4
471,14.62,4
472,14.05,4
473,14.41,4
474,14.61,4
475,14.56,4
476,14.57,4
477,14.18,4
478,13.97,4
479,13.84,4
480,13.9,4
481,14.37,4
482,14.25,4
483,14.17,4
484,14.47,4
485,13.88,4
486,13.92,4
487,14.44,4
488,13.99,4
489,13.47,4
490,13.82,4
491,14.38,4
492,14.22,4
493,13.51,4
494,13.27,3
495,13.19,3
496,13.11,3
497,13.55,3
498,13.3,3
499,13.84,3
500,13.32,3
501,12.79,3
502,13.04,3
503,12.82,3
504,13.39,3
505,13.25,3
506,13.07,3
507,13.44,3
508,13.43,3
509,13.14,3
510,13.74,3
511,13.6,3
512,14.11,3
513,14.39,3
514,14.64,3
515,15.0,3
516,15.09,3
517,14.94,3
518,14.9,3
519,14.62,3
520,14.63,3
521,14.62,3
522,13.95,3
523,13.62,3
524,14.16,3
525,13.62,3
526,14.31,3
527,14.39,3
528,13.79,3
529,13.5,3
530,14.27,3
531,14.39,3
532,14.53,3
533,15.16,3
534,15.07,3
535,14.78,3
536,14.69,3
537,14.18,3
538,13.95,3
539,14.44,3
540,14.95,3
541,14.69,3
542,14.8,3
543,14.25,3
544,14.1,3
545,13.56,3
546,13.68,3
547,13.69,3
548,13.24,3
549,13.76,3
550,13.84,3
551,13.89,3
552,13.73,3
553,13.27,3
554,13.73,3
555,13.65,3
556,14.01,3
557,13.95,3
558,14.31,3
559,14.45,3
560,14.48,3
561,14.43,3
562,13.92,3
563,13.52,3
564,13.62,3
565,13.29,3
566,13.03,3
567,13.42,3
568,13.09,3
569,12.56,3
570,12.61,3
571,12.58,3
572,12.58,3
573,12.38,3
574,11.98,3
575,12.89,3
576,13.24,3
577,12.73,3
578,12.37,3
579,11.84,3
580,11.35,3
581,11.45,3
582,11.6,3
583,11.7,3
584,11.9,3
585,11.81,3
586,12.15,3
587,12.44,3
588,12.14,3
589,12.38,3
590,12.53,3
591,12.74,3
592,12.6,3
593,13.48,3
594,13.58,3
595,13.72,3
596,13.87,3
597,13.77,3
598,14.26,3
599,14.63,3
600,13.94,3
601,13.15,3
602,13.12,3
603,12.55,3
604,12.2,3
605,12.2,3
606,12.37,3
607,11.9,3
608,11.68,3
609,11.28,3
610,11.18,3
611,11.66,3
612,11.15,3
613,10.91,2
614,11.72,2
615,11.87,2
616,12.01,2
617,12.5,2
618,12.58,2
619,12.99,2
620,13.62,2
621,12.53,2
622,11.98,2
623,11.34,2
624,11.27,2
625,11.91,2
626,12.17,2
627,12.34,2
628,12.81,2
629,13.56,2
630,13.25,2
631,13.25,2
632,13.58,2
633,13.37,2
634,13.31,2
635,13.66,2
636,13.56,2
637,13.13,2
638,12.74,2
639,13.22,2
640,13.27,2
641,13.19,2
642,13.76,2
643,13.51,2
644,13.59,2
645,14.13,2
646,13.69,2
647,14.38,2
648,13.12,2
649,13.1,2
650,14.0,2
651,13.18,2
652,13.39,1
653,13.09,1
654,13.68,1
655,13.7,1
656,13.62,1
657,13.34,1
658,13.54,1
659,13.24,1
660,13.44,1
661,13.0,1
662,13.75,1
663,13.24,1
664,13.8,1
665,12.88,1
666,11.51,1
667,11.58,1
668,11.65,1
669,12.3,1
670,12.51,1
671,13.0,1
672,13.23,1
673,13.69,1
674,14.28,1
675,14.56,1
676,14.8,1
677,14.99,1
678,15.33,1
679,15.12,1
680,14.9,1
681,15.51,1
682,14.96,1
683,14.71,1
684,14.06,1
685,13.25,1
686,12.0,1
687,11.4,1
688,11.4,1
689,11.14,1
690,11.28,1
691,11.46,1
692,11.37,1
693,11.71,1
694,12.51,1
695,12.24,1
696,12.5,1
697,12.26,1
698,11.69,1
699,11.92,1
700,11.81,1
701,12.37,1
702,11.61,1
703,12.15,1
704,12.1,1
705,12.17,1
706,12.29,1
707,12.52,1
708,13.06,1
709,12.27,1
710,12.22,1
711,11.57,1
712,12.44,1
713,12.7,1
714,12.32,1
715,12.47,1
716,12.41,1
717,12.49,1
718,12.89,1
719,13.45,1
720,13.3,1
721,13.93,1
722,13.56,1
723,13.13,1
724,13.09,1
725,12.2,1
726,11.58,1
727,11.47,1
728,11.77,1
729,11.62,1
730,11.5,1
731,11.86,1
732,11.85,1
733,12.17,1
734,12.14,1
735,12.21,1
736,12.18,1
737,11.34,1
738,11.73,1
739,11.51,1
740,12.09,1
741,11.87,1
742,12.33,1
743,11.66,1
744,11.8,1
745,11.88,1
746,12.15,1
747,12.38,1
748,12.22,1
749,11.87,1
750,11.97,1
751,12.37,1
752,11.91,1
753,12.8,1
754,12.53,1
755,12.85,1
756,12.37,1
757,11.89,1
758,11.46,1
759,11.26,1
760,10.86,1
761,10.69,1
762,10.92,1
763,10.6,1
764,10.68,1
765,11.03,1
766,11.35,1
767,11.83,1
768,11.94,1
769,12.05,1
770,12.41,1
771,12.24,1
772,12.83,1
773,12.44,1
774,12.7,1
775,12.23,1
776,12.08,1
777,11.35,1
778,11.39,1
779,11.58,1
780,11.23,1
781,10.47,1
782,10.46,1
783,10.17,1
784,10.35,1
785,11.1,1
786,11.1,1
787,11.07,1
788,12.09,1
789,12.36,1
790,11.92,1
791,11.99,1
792,12.63,1
793,12.65,1
794,11.99,1
795,12.11,1
796,12.02,1
797,12.07,1
798,11.76,1
799,11.92,1
800,11.41,1
801,11.36,1
802,11.84,1
803,12.09,1
804,12.12,1
805,12.0,1
806,12.03,1
807,12.69,1
808,13.18,1
809,13.35,1
810,12.99,1
811,13.15,1
812,13.08,1
813,13.06,1
814,12.53,1
815,11.75,1
816,12.47,1
817,12.12,1
818,12.46,1
819,11.87,1
820,11.67,1
821,12.27,1
822,12.31,1
823,11.78,1
824,12.03,1
825,11.91,1
826,11.94,1
827,11.42,1
828,12.16,1
829,12.94,1
830,13.07,1
831,13.42,1
832,12.23,1
833,11.98,1
834,11.95,1
835,11.16,1
836,11.0,1
837,11.55,1
838,11.91,1
839,12.15,1
840,12.43,1
841,12.59,1
842,12.16,1
843,12.38,1
844,12.49,1
845,12.42,1
846,11.82,1
847,11.86,1
848,11.79,1
849,12.54,1
850,12.82,1
851,12.86,1
852,12.71,1
853,12.5,1
854,12.48,1
855,13.1,1
856,12.36,1
857,12.31,1
858,12.36,1
859,11.89,1
860,12.04,1
861,12.56,1
862,12.63,1
863,12.78,1
864,12.23,1
865,12.66,1
866,12.75,1
867,12.9,1
868,12.9,1
869,12.03,1
870,11.96,1
871,11.85,1
872,11.2,1
873,11.08,1
874,11.48,1
875,11.55,1
876,11.55,1
877,11.99,1
878,12.22,1
879,12.56,1
880,13.2,1
881,13.35,1
882,12.9,1
883,12.26,1
884,12.25,1
885,13.17,1
886,13.72,1
887,13.24,1
888,12.48,1
889,12.3,1
890,11.64,1
891,11.86,1
892,11.21,1
893,10.42,1
894,10.35,1
895,11.08,1
896,11.36,1
897,11.72,1
898,11.83,1
899,11.5,1
900,11.47,1
901,11.36,1
902,11.65,1
903,11.88,1
904,11.95,1
905,12.19,1
906,12.51,1
907,12.97,1
908,12.54,1
909,13.03,1
910,12.85,1
911,12.38,1
912,12.2,1
913,11.09,1
914,10.8,1
915,11.19,1
916,11.09,1
917,11.02,1
918,10.9,1
919,11.01,1
920,11.65,1
921,11.42,1
922,11.31,1
923,12.05,1
924,12.38,1
925,12.64,1
926,12.78,1
927,12.86,1
928,13.36,1
929,13.29,1
930,13.17,1
931,13.22,1
932,12.88,1
933,12.62,1
934,11.96,1
935,12.28,1
936,12.33,1
937,13.19,1
938,13.23,1
939,13.6,1
940,13.07,1
941,13.02,1
942,12.82,1
943,12.6,1
944,12.47,1
945,12.98,1
946,13.62,1
947,13.27,1
948,13.06,1
949,12.82,1
950,13.1,1
951,14.1,1
952,13.82,1
953,12.76,1
954,12.02,1
955,11.4,1
956,11.49,1
957,11.04,1
958,11.32,1
959,11.04,1
960,11.19,1
961,11.03,1
962,10.61,1
963,10.26,1
964,9.21,1
965,9.32,1
966,9.49,1
967,9.74,1
968,10.05,1
969,10.4,1
970,10.72,1
971,10.65,1
972,11.2,1
973,11.08,1
974,11.5,1
975,12.05,1
976,11.84,1
977,11.33,1
978,11.26,1
979,11.04,1
980,11.43,1
981,11.71,1
982,11.32,1
983,11.97,1
984,11.43,1
985,11.63,1
986,11.56,1
987,11.89,1
988,11.77,1
989,12.42,1
990,12.32,1
991,11.45,1
992,11.62,1
993,11.45,1
994,11.87,1
995,12.65,1
996,13.22,1
997,13.22,1
998,13.13,1
999,12.91,1
